CapLotSizing_PM/src/Instancias/NCLSHT/6i6p4m/NBA01.OUT
 CG ITER, OVMR, OVMRUB =           1   12241.6679688    7516.6010742
 CG ITER, OVMR, OVMRUB =           2    7516.6020508    7516.6010742
 CG ITER, OVMR, OVMRUB =           3    7516.6010742    7516.6010742
 CG ITER, OVMR, OVMRUB =           4    7516.6015625    7516.6010742
 CG ITER, OVMR, OVMRUB =           5    7516.6010742    7516.6010742
 CG ITER, OVMR, OVMRUB =           6    7516.6010742    7516.6010742
 CG ITER, OVMR, OVMRUB =           7    7516.6010742    7516.6010742
 CG ITER, OVMR, OVMRUB =           8    7516.6010742    7516.6010742
 CG ITER, OVMR, OVMRUB =           9    7516.6010742    7516.6010742
 CG ITER, OVMR, OVMRUB =          10    7516.6010742    7516.6010742
OVLB =    7516.6010742 OVLUB =    7516.6010742 TIME =       0.5500000
